(set-logic QF_S)
(declare-fun var0 () String)
(declare-fun var1 () Int)
(declare-fun var2 () Int)
(declare-fun var3 () String)
(declare-fun var4 () Int)
(declare-fun var5 () Int)
(declare-fun var6 () String)
(declare-fun var7 () String)
(assert (> (str.indexof (str.substr var0 var1 var2) (str.substr var3 var4 var5) (str.indexof var6 var7 var5)) (str.len var7)))
(assert (<= (str.indexof (str.replace "i=kaS|@I" "o!" var6) (str.replace var7 var6 "MsD-qhi]#+") (str.to.int var7)) (str.indexof var0 var6 var4)))
(assert (< (str.to.int var3) (str.len (str.replace var3 var0 var6))))
(assert (str.prefixof (str.substr var7 var1 var5) (str.substr var0 var2 var4)))
(check-sat)